clingo version 5.6.2
Reading from ...utogen_asp_scripts/ijp_expt_cases-2.dl
Solving...
UNSATISFIABLE

Models       : 0
Calls        : 1
Time         : 0.073s (Solving: 0.03s 1st Model: 0.00s Unsat: 0.03s)
CPU Time     : 0.072s
